presolving:
(round 1, fast)       0 del vars, 222 del conss, 0 add conss, 4884 chg bounds, 0 chg sides, 4884 chg coeffs, 0 upgd conss, 0 impls, 2 clqs
   (0.1s) running MILP presolver
   (0.1s) MILP presolver found nothing
(round 2, exhaustive) 0 del vars, 222 del conss, 0 add conss, 4884 chg bounds, 0 chg sides, 4884 chg coeffs, 9548 upgd conss, 0 impls, 2 clqs
   (1.7s) probing: 495/666 (74.3%) - 0 fixings, 0 aggregations, 490620 implications, 0 bound changes
   (1.7s) probing aborted: 50/50 successive totally useless probings
   (1.7s) symmetry computation started: requiring (bin +, int -, cont +), (fixed: bin -, int +, cont -)
   (1.7s) no symmetry present
   (1.7s) symmetry computation started: requiring (bin +, int +, cont +), (fixed: bin -, int -, cont -)
   (1.7s) no symmetry present
presolving (3 rounds: 3 fast, 2 medium, 2 exhaustive):
 0 deleted vars, 222 deleted constraints, 0 added constraints, 4884 tightened bounds, 0 added holes, 0 changed sides, 4884 changed coefficients
 500166 implications, 446 cliques
presolved problem has 7548 variables (666 bin, 6882 int, 0 impl, 0 cont) and 9579 constraints
   9546 constraints of type <varbound>
      2 constraints of type <setppc>
     31 constraints of type <linear>
transformed objective value is always integral (scale: 1)
Presolving Time: 1.73

 time | node  | left  |LP iter|LP it/n|mem/heur|mdpt |vars |cons |rows |cuts |sepa|confs|strbr|  dualbound   | primalbound  |  gap   | compl. 
p 1.8s|     1 |     0 |    31 |     - |  clique|   0 |7548 |9579 |9579 |   0 |  0 |   0 |   0 | 0.000000e+00 | 8.896100e+04 |    Inf | unknown
  2.3s|     1 |     0 |  2968 |     - |   136M |   0 |7548 |9579 |9579 |   0 |  0 |   0 |   0 | 3.428661e+04 | 8.896100e+04 | 159.46%| unknown
r 2.3s|     1 |     0 |  2968 |     - |rounding|   0 |7548 |9579 |9579 |   0 |  0 |   0 |   0 | 3.428661e+04 | 4.285100e+04 |  24.98%| unknown
  2.6s|     1 |     0 |  3376 |     - |   141M |   0 |7548 |9579 |9581 |   2 |  1 |   0 |   0 | 3.433937e+04 | 4.285100e+04 |  24.79%| unknown
  2.9s|     1 |     0 |  3717 |     - |   142M |   0 |7548 |9579 |9584 |   5 |  2 |   0 |   0 | 3.443268e+04 | 4.285100e+04 |  24.45%| unknown
  3.2s|     1 |     0 |  3977 |     - |   143M |   0 |7548 |9579 |9588 |   9 |  3 |   0 |   0 | 3.461455e+04 | 4.285100e+04 |  23.79%| unknown
  3.5s|     1 |     0 |  4131 |     - |   144M |   0 |7548 |9579 |9591 |  12 |  4 |   0 |   0 | 3.465906e+04 | 4.285100e+04 |  23.64%| unknown
  3.7s|     1 |     0 |  4213 |     - |   147M |   0 |7548 |9579 |9594 |  15 |  5 |   0 |   0 | 3.466895e+04 | 4.285100e+04 |  23.60%| unknown
  4.0s|     1 |     0 |  4361 |     - |   148M |   0 |7548 |9579 |9599 |  20 |  6 |   0 |   0 | 3.468758e+04 | 4.285100e+04 |  23.53%| unknown
  4.3s|     1 |     0 |  4437 |     - |   149M |   0 |7548 |9579 |9601 |  22 |  7 |   0 |   0 | 3.470272e+04 | 4.285100e+04 |  23.48%| unknown
  4.6s|     1 |     0 |  4588 |     - |   150M |   0 |7548 |9579 |9603 |  24 |  8 |   0 |   0 | 3.471922e+04 | 4.285100e+04 |  23.42%| unknown
  4.8s|     1 |     0 |  4625 |     - |   152M |   0 |7548 |9582 |9604 |  25 |  9 |   3 |   0 | 3.472084e+04 | 4.285100e+04 |  23.42%| unknown
  5.1s|     1 |     0 |  4726 |     - |   153M |   0 |7548 |9582 |9606 |  27 | 10 |   3 |   0 | 3.472977e+04 | 4.285100e+04 |  23.38%| unknown
  5.2s|     1 |     0 |  4789 |     - |   154M |   0 |7548 |9582 |9609 |  30 | 11 |   3 |   0 | 3.473539e+04 | 4.285100e+04 |  23.36%| unknown
  5.3s|     1 |     0 |  4883 |     - |   155M |   0 |7548 |9582 |9612 |  33 | 12 |   3 |   0 | 3.474628e+04 | 4.285100e+04 |  23.33%| unknown
 time | node  | left  |LP iter|LP it/n|mem/heur|mdpt |vars |cons |rows |cuts |sepa|confs|strbr|  dualbound   | primalbound  |  gap   | compl. 
  5.4s|     1 |     0 |  4919 |     - |   156M |   0 |7548 |9587 |9614 |  35 | 13 |   8 |   0 | 3.474855e+04 | 4.285100e+04 |  23.32%| unknown
  5.5s|     1 |     0 |  4947 |     - |   157M |   0 |7548 |9587 |9615 |  36 | 14 |   8 |   0 | 3.474949e+04 | 4.285100e+04 |  23.31%| unknown
  5.6s|     1 |     0 |  4968 |     - |   158M |   0 |7548 |9587 |9616 |  37 | 15 |   8 |   0 | 3.475039e+04 | 4.285100e+04 |  23.31%| unknown
  5.7s|     1 |     0 |  4979 |     - |   160M |   0 |7548 |9587 |9613 |  38 | 16 |   8 |   0 | 3.475106e+04 | 4.285100e+04 |  23.31%| unknown
  5.8s|     1 |     0 |  5021 |     - |   160M |   0 |7548 |9587 |9614 |  39 | 17 |   8 |   0 | 3.475395e+04 | 4.285100e+04 |  23.30%| unknown
  5.9s|     1 |     0 |  5063 |     - |   160M |   0 |7548 |9589 |9615 |  40 | 18 |  10 |   0 | 3.475586e+04 | 4.285100e+04 |  23.29%| unknown
  6.0s|     1 |     0 |  5073 |     - |   160M |   0 |7548 |9589 |9618 |  43 | 19 |  10 |   0 | 3.475607e+04 | 4.285100e+04 |  23.29%| unknown
  6.1s|     1 |     0 |  5126 |     - |   162M |   0 |7548 |9593 |9619 |  44 | 20 |  14 |   0 | 3.475841e+04 | 4.285100e+04 |  23.28%| unknown
  6.2s|     1 |     0 |  5138 |     - |   162M |   0 |7548 |9596 |9620 |  45 | 21 |  17 |   0 | 3.475843e+04 | 4.285100e+04 |  23.28%| unknown
d 7.7s|     1 |     0 |  9616 |     - |farkasdi|   0 |7548 |9598 |9620 |   0 | 22 |  19 |   0 | 3.475843e+04 | 4.000400e+04 |  15.09%| unknown
o 7.8s|     1 |     0 | 12703 |     - |feaspump|   0 |7548 |9598 |9620 |  45 | 22 |  19 |   0 | 3.475843e+04 | 3.667100e+04 |   5.50%| unknown
  8.1s|     1 |     0 | 13151 |     - |   164M |   0 |7548 |9598 |9620 |  45 | 22 |  29 |   0 | 3.475843e+04 | 3.667100e+04 |   5.50%| unknown
  8.2s|     1 |     0 | 13151 |     - |   164M |   0 |7548 |9603 |9620 |  45 | 22 |  34 |   0 | 3.475843e+04 | 3.667100e+04 |   5.50%| unknown
  8.2s|     1 |     0 | 13160 |     - |   165M |   0 |7548 |9603 |9218 |  46 | 23 |  34 |   0 | 3.475868e+04 | 3.667100e+04 |   5.50%| unknown
  8.2s|     1 |     0 | 13160 |     - |   166M |   0 |7548 |9603 |9218 |  46 | 23 |  34 |   0 | 3.475868e+04 | 3.667100e+04 |   5.50%| unknown
 time | node  | left  |LP iter|LP it/n|mem/heur|mdpt |vars |cons |rows |cuts |sepa|confs|strbr|  dualbound   | primalbound  |  gap   | compl. 
 10.9s|     1 |     2 | 13161 |     - |   166M |   0 |7548 |9130 |9218 |  46 | 24 |  34 |  21 | 3.486817e+04 | 3.667100e+04 |   5.17%| unknown
(run 1, node 1) restarting after 374 global fixings of integer variables

(restart) converted 37 cuts from the global cut pool into linear constraints

presolving:
(round 1, fast)       374 del vars, 0 del conss, 0 add conss, 0 chg bounds, 0 chg sides, 2254 chg coeffs, 0 upgd conss, 500166 impls, 424 clqs
(round 2, exhaustive) 374 del vars, 0 del conss, 0 add conss, 0 chg bounds, 0 chg sides, 2254 chg coeffs, 9 upgd conss, 500166 impls, 424 clqs
presolving (3 rounds: 3 fast, 2 medium, 2 exhaustive):
 374 deleted vars, 0 deleted constraints, 0 added constraints, 0 tightened bounds, 0 added holes, 0 changed sides, 2254 changed coefficients
 500166 implications, 424 cliques
presolved problem has 7174 variables (633 bin, 6541 int, 0 impl, 0 cont) and 9167 constraints
   9073 constraints of type <varbound>
     11 constraints of type <setppc>
     59 constraints of type <linear>
     24 constraints of type <bounddisjunction>
transformed objective value is always integral (scale: 1)
Presolving Time: 1.77
transformed 4/5 original solutions to the transformed problem space

 time | node  | left  |LP iter|LP it/n|mem/heur|mdpt |vars |cons |rows |cuts |sepa|confs|strbr|  dualbound   | primalbound  |  gap   | compl. 
 11.7s|     1 |     0 | 17016 |     - |   167M |   0 |7174 |9167 |9143 |   0 |  0 |  34 |  21 | 3.486817e+04 | 3.667100e+04 |   5.17%| unknown
 11.7s|     1 |     0 | 17016 |     - |   167M |   0 |7174 |9167 |9140 |   0 |  0 |  34 |  21 | 3.486817e+04 | 3.667100e+04 |   5.17%| unknown
 12.1s|     1 |     0 | 17048 |     - |   170M |   0 |7174 |9167 |6979 |   1 |  1 |  34 |  21 | 3.486817e+04 | 3.667100e+04 |   5.17%| unknown
 12.1s|     1 |     0 | 17048 |     - |   170M |   0 |7174 |9170 |6974 |   1 |  1 |  37 |  21 | 3.486817e+04 | 3.667100e+04 |   5.17%| unknown
 12.3s|     1 |     0 | 17055 |     - |   171M |   0 |7174 |9170 |6975 |   2 |  2 |  37 |  21 | 3.486817e+04 | 3.667100e+04 |   5.17%| unknown
 12.3s|     1 |     0 | 17055 |     - |   171M |   0 |7174 |9172 |6975 |   2 |  2 |  39 |  21 | 3.486817e+04 | 3.667100e+04 |   5.17%| unknown
 12.4s|     1 |     0 | 17091 |     - |   171M |   0 |7174 |9172 |6976 |   3 |  3 |  39 |  21 | 3.486817e+04 | 3.667100e+04 |   5.17%| unknown
 12.4s|     1 |     0 | 17091 |     - |   171M |   0 |7174 |9172 |6964 |   3 |  3 |  39 |  21 | 3.486817e+04 | 3.667100e+04 |   5.17%| unknown
 12.6s|     1 |     0 | 17107 |     - |   172M |   0 |7174 |9172 |6965 |   4 |  4 |  39 |  21 | 3.486817e+04 | 3.667100e+04 |   5.17%| unknown
 12.6s|     1 |     0 | 17107 |     - |   172M |   0 |7174 |9172 |6962 |   4 |  4 |  39 |  21 | 3.486817e+04 | 3.667100e+04 |   5.17%| unknown
 12.8s|     1 |     0 | 17177 |     - |   173M |   0 |7174 |9172 |6964 |   6 |  5 |  39 |  21 | 3.486817e+04 | 3.667100e+04 |   5.17%| unknown
 12.8s|     1 |     0 | 17177 |     - |   173M |   0 |7174 |9172 |6959 |   6 |  5 |  39 |  21 | 3.486817e+04 | 3.667100e+04 |   5.17%| unknown
 13.0s|     1 |     0 | 17190 |     - |   174M |   0 |7174 |9172 |6960 |   7 |  6 |  39 |  21 | 3.486817e+04 | 3.667100e+04 |   5.17%| unknown
 13.2s|     1 |     0 | 17221 |     - |   174M |   0 |7174 |9172 |6961 |   8 |  7 |  39 |  21 | 3.486817e+04 | 3.667100e+04 |   5.17%| unknown
 13.2s|     1 |     0 | 17221 |     - |   174M |   0 |7174 |9172 |6959 |   8 |  7 |  39 |  21 | 3.486817e+04 | 3.667100e+04 |   5.17%| unknown
 time | node  | left  |LP iter|LP it/n|mem/heur|mdpt |vars |cons |rows |cuts |sepa|confs|strbr|  dualbound   | primalbound  |  gap   | compl. 
 13.3s|     1 |     0 | 17235 |     - |   174M |   0 |7174 |9172 |6960 |   9 |  8 |  39 |  21 | 3.486817e+04 | 3.667100e+04 |   5.17%| unknown
 13.4s|     1 |     0 | 17235 |     - |   174M |   0 |7174 |9172 |6960 |   9 |  8 |  39 |  21 | 3.486817e+04 | 3.667100e+04 |   5.17%| unknown
 13.5s|     1 |     0 | 17269 |     - |   174M |   0 |7174 |9172 |6962 |  11 |  9 |  39 |  21 | 3.486817e+04 | 3.667100e+04 |   5.17%| unknown
 13.5s|     1 |     0 | 17269 |     - |   175M |   0 |7174 |9172 |6958 |  11 |  9 |  39 |  21 | 3.486817e+04 | 3.667100e+04 |   5.17%| unknown
 13.7s|     1 |     0 | 17298 |     - |   175M |   0 |7174 |9172 |6956 |  12 | 10 |  39 |  21 | 3.486817e+04 | 3.667100e+04 |   5.17%| unknown
 13.7s|     1 |     0 | 17298 |     - |   175M |   0 |7174 |9176 |6946 |  12 | 10 |  43 |  21 | 3.486817e+04 | 3.667100e+04 |   5.17%| unknown
 13.8s|     1 |     0 | 17315 |     - |   176M |   0 |7174 |9176 |6947 |  13 | 11 |  43 |  21 | 3.486817e+04 | 3.667100e+04 |   5.17%| unknown
 13.8s|     1 |     0 | 17315 |     - |   176M |   0 |7174 |9176 |6944 |  13 | 11 |  43 |  21 | 3.486817e+04 | 3.667100e+04 |   5.17%| unknown
 16.5s|     1 |     2 | 19519 |     - |   176M |   0 |7174 |6319 |6944 |  13 | 11 |  73 |  40 | 3.488247e+04 | 3.667100e+04 |   5.13%| unknown
r50.3s|    43 |    15 | 27364 | 420.8 |rounding|  12 |7174 |6513 |6931 |  49 |  0 | 273 | 660 | 3.503110e+04 | 3.642200e+04 |   3.97%|   7.74%
*50.7s|    51 |    17 | 27711 | 361.6 |    LP  |  12 |7174 |6513 |6931 |  49 |  2 | 273 | 670 | 3.503110e+04 | 3.627300e+04 |   3.55%|   7.94%
d52.0s|    66 |    25 | 29006 | 299.0 |pscostdi|  16 |7174 |6512 |6938 |   0 |  2 | 273 | 677 | 3.503110e+04 | 3.624400e+04 |   3.46%|   8.41%
r52.1s|    69 |     7 | 29142 | 288.0 |rounding|  16 |7174 |6512 |6932 |  67 |  0 | 273 | 677 | 3.503110e+04 | 3.550000e+04 |   1.34%|  15.31%
*52.1s|    70 |     6 | 29166 | 284.2 |    LP  |  16 |7174 |6511 |6932 |  67 |  2 | 273 | 677 | 3.503110e+04 | 3.515600e+04 |   0.36%|  22.19%

SCIP Status        : problem is solved [optimal solution found]
Solving Time (sec) : 52.56
Solving Nodes      : 78 (total of 79 nodes in 2 runs)
Primal Bound       : +3.51560000000000e+04 (10 solutions)
Dual Bound         : +3.51560000000000e+04
Gap                : 0.00 %
Solve Status: optimal
Solve Time: 52.56 seconds
Objective Value: 35156.00
